10
-1 68 46 55 23 43 41 29 79 21
68 -1 82 15 72 31 62 42 21 51
46 82 -1 74 23 52 21 46 82 58
55 15 74 -1 61 23 55 31 33 37
23 72 23 61 -1 42 23 31 77 37
43 31 52 23 42 -1 33 15 37 33
41 62 21 55 23 33 -1 29 62 46
29 42 46 31 31 15 29 -1 51 21
79 21 82 33 77 37 62 51 -1 65
21 51 58 37 37 33 46 21 65 -1